NAME : random_15
COMMENT : 50 random nodes
TYPE : TSP
DIMENSION : 50
EDGE_WEIGHT_TYPE : EUC_2D
NODE_COORD_SECTION
1 653 589
2 319 13
3 58 929
4 390 294
5 476 212
6 666 216
7 399 50
8 823 541
9 717 379
10 204 902
11 472 40
12 538 54
13 137 280
14 126 950
15 975 770
16 46 774
17 311 707
18 185 710
19 950 69
20 692 815
21 432 983
22 692 630
23 685 41
24 32 278
25 97 100
26 309 983
27 716 764
28 379 496
29 128 977
30 869 160
31 331 73
32 872 544
33 277 770
34 102 249
35 91 547
36 259 227
37 825 868
38 987 725
39 770 223
40 671 686
41 200 127
42 319 734
43 238 508
44 487 212
45 353 606
46 141 332
47 460 886
48 623 896
49 319 378
50 347 458
EOF